c A SAT instance generated from a 3-CNF formula that had 25 clauses and 50 variables
p cnf 50 25
-50 28 48 0
-1 -43 -27 0
22 -50 15 0
27 15 -1 0
32 -48 -42 0
37 -38 41 0
14 50 -38 0
-15 -47 -19 0
3 17 -11 0
-45 26 -15 0
-13 28 -27 0
47 29 -31 0
23 8 -6 0
-11 -21 35 0
26 24 28 0
3 -34 -45 0
-41 -43 -8 0
36 4 -43 0
15 10 -21 0
-47 39 23 0
-18 -44 11 0
13 -24 -39 0
-3 38 4 0
-37 15 -23 0
17 -35 -6 0
